NAME : random_19
COMMENT : 31 random nodes
TYPE : TSP
DIMENSION : 31
EDGE_WEIGHT_TYPE : EUC_2D
NODE_COORD_SECTION
1 1469 2430
2 1344 3333
3 2493 1328
4 2217 4207
5 73 544
6 2913 3891
7 1299 4456
8 -2736 623
9 -1141 2492
10 -2276 -2717
11 3211 -1897
12 -2057 -2427
13 910 -701
14 790 -2607
15 2030 602
16 2635 -1849
17 4396 -1559
18 1065 761
19 -1398 3316
20 620 -1236
21 1827 -2301
22 -49 -2662
23 3986 2161
24 1162 -2009
25 2465 1381
26 562 2119
27 3674 -859
28 -713 2062
29 1568 3743
30 2828 1370
31 2546 -2503
EOF